
Gurobi 10.0.1 (mac64[arm]) logging started Fri Mar 29 21:47:04 2024

Set parameter LogFile to value "/Users/deniserings/Documents/zib/s-bahn-data/scripts/DeniseMA/processed/BGAS_BKW/RINS/BGAS_BKW_202403292026_other alternatives_0.6.log"
Gurobi Optimizer version 10.0.1 build v10.0.1rc0 (mac64[arm])

CPU model: Apple M2
Thread count: 8 physical cores, 8 logical processors, using up to 8 threads

Optimize a model with 1964 rows, 1012 columns and 7142 nonzeros
Model fingerprint: 0xdfdb1a30
Variable types: 411 continuous, 601 integer (170 binary)
Coefficient statistics:
  Matrix range     [1e+00, 4e+02]
  Objective range  [1e+00, 4e+02]
  Bounds range     [1e+00, 2e+02]
  RHS range        [1e+00, 5e+03]

User MIP start did not produce a new incumbent solution
User MIP start violates constraint objective_cutoff by 49.140000000

Presolve removed 1146 rows and 471 columns
Presolve time: 0.01s
Presolved: 818 rows, 541 columns, 3315 nonzeros
Variable types: 207 continuous, 334 integer (334 binary)

Root relaxation: objective 4.294000e+03, 241 iterations, 0.00 seconds (0.00 work units)
Another try with MIP start

    Nodes    |    Current Node    |     Objective Bounds      |     Work
 Expl Unexpl |  Obj  Depth IntInf | Incumbent    BestBd   Gap | It/Node Time

     0     0 4294.00000    0   17          - 4294.00000      -     -    0s
     0     0 4351.00000    0   62          - 4351.00000      -     -    0s
     0     0 4351.00000    0   55          - 4351.00000      -     -    0s
     0     0 4351.00000    0   59          - 4351.00000      -     -    0s
     0     0 4351.00000    0   58          - 4351.00000      -     -    0s
     0     0 4387.00000    0   40          - 4387.00000      -     -    0s
     0     0 4387.00000    0   34          - 4387.00000      -     -    0s
     0     2 4387.00000    0   33          - 4387.00000      -     -    0s
 50049 20739 4672.00000   38   16          - 4663.07823      -   8.8    5s
 121191 25511 infeasible   47               - 4741.64828      -   9.4   10s
 189318 27648 infeasible   47               - 4797.00000      -   9.2   15s
 257419 18199 4842.56012   45   25          - 4842.33690      -   8.9   20s

Cutting planes:
  Learned: 25
  Gomory: 79
  Cover: 8
  Implied bound: 4
  MIR: 26
  StrongCG: 2
  Flow cover: 65
  Zero half: 1
  Network: 3
  RLT: 15
  Relax-and-lift: 1

Explored 297183 nodes (2569429 simplex iterations) in 23.00 seconds (25.18 work units)
Thread count was 8 (of 8 available processors)

Solution count 0

Model is infeasible
Best objective -, best bound -, gap -

User-callback calls 604459, time in user-callback 1.57 sec
